#------------------------------------------------------------------------
# bluebronze
#------------------------------------------------------------------------

SystemName          bluebronze
SystemLabel         bluebronze
NumberOfAtoms       43 
NumberOfSpecies      3
%block ChemicalSpeciesLabel
 1  19  K  
 2  42  Mo
 3   8  O
%endblock ChemicalSpeciesLabel

#----------------------------Base----------------------------------

PAO.BasisSize     DZP
PAO.EnergyShift   10 meV
PAO.SplitNorm	  0.15

%block PAO.Basis     # Define Basis set
 K    2 
   n=4  0  2 P
	4.5  3.5 
	1.0  1.0
   n=3  1  1
	3.2
	1.0
 Mo    3
   n=5  0  2 P
	4.0  3.0
	1.0  1.0
   n=4  1  1 
	3.2
	1.0
   n=4  2  2 
	3.5	3.4
	1.0	1.0
 O     2     
   n=2  0    2   E      0.00      1.31
 	5.000   2.581
	1.000   1.000
   n=2  1    1  
	6.500   
	1.000   
%endblock PAO.Basis

#--------------------------Geometria-------------------------------

LatticeConstant     1.0000 Ang

%block LatticeVectors
  -8.536287       3.775100       4.912717        
   0.000000       7.550200       0.000000        
  -0.841473       0.000000       9.825433  
%endblock LatticeVectors

AtomicCoordinatesFormat Ang

%block AtomicCoordinatesAndAtomicSpecies
   14.968890     11.325300     14.738149     1 #    K		 1       
   20.426983     11.325300     10.133952     1 #    K            2
   18.047084     15.100400     14.429631     1 #    K            3       
   19.461239     11.325300     14.225655     2 #    Mo 		 4       
   19.012828     15.100400     10.337928     2 #    Mo		 5              
   21.897229      9.398111     13.537383     2 #    Mo		 6       
   21.897229     13.252489     13.537383     2 #    Mo		 7         
   16.576838     13.173211     11.026199     2 #    Mo		 8        
   16.576838      9.477389     11.026199     2 #    Mo		 9   
   16.972027      9.437221     17.608748     2 #    Mo		10     
   16.972027     13.213379     17.608748     2 #    Mo		11        
   20.660567     13.212321     16.780267     2 #    Mo		12      
   20.660567      9.438279     16.780267     2 #    Mo		13
   18.816297      9.437750     17.194508     3 #    O		14
   18.816297     13.212850     17.194508     3 #    O		15
   19.218763     11.325300     12.551991     3 #    O		16       
   19.255305     15.100400     12.011592     3 #    O		17             
   20.568668     15.100400      9.658401     3 #    O		18       
   17.905399     11.325300     14.905182     3 #    O		19              
   16.612912     11.325300     10.722495     3 #    O		20       
   21.861156     15.100400     13.841087     3 #    O		21            
   21.733134     11.325300     13.800803     3 #    O		22       
   16.740933     15.100400     10.762779     3 #    O		23     
   20.429596     11.325300     16.285655     3 #    O		24       
   17.202999     15.100400     18.103360     3 #    O		25
   16.998074     11.325300     17.785999     3 #    O		26       
   20.634521     15.100400     16.603017     3 #    O		27     
   21.687143      9.398489     11.874036     3 #    O		28       
   21.687143     13.252111     11.874036     3 #    O		29
   16.786925     13.173589     12.689547     3 #    O		30          
   16.786925      9.477011     12.689547     3 #    O		31     
   18.378593      9.386409     10.062226     3 #    O		32       
   18.378593     13.264191     10.062226     3 #    O		33
   20.095474     13.161509     14.501357     3 #    O		34       
   20.095474      9.489091     14.501357     3 #    O		35     
   16.287933      9.205204     16.090129     3 #    O		36       
   16.287933     13.445396     16.090129     3 #    O		37
   21.344661     12.980304     18.298886     3 #    O		38       
   21.344661      9.670296     18.298886     3 #    O		39     
   15.251282      9.409814     18.585789     3 #    O		40       
   15.251282     13.240786     18.585789     3 #    O		41
   22.381312     13.184914     15.803226     3 #    O		42       
   22.381312      9.465686     15.803226     3 #    O		43 
%endblock AtomicCoordinatesAndAtomicSpecies

#----------------------------punts k-------------------------------

kgrid_cutoff		30 Ang

%block kgrid_Monkhorst_Pack
   11    0    0   0.0
    0   21    0   0.0
    0    0   11   0.0
%endblock kgrid_Monkhorst_Pack

BandLinesScale  ReciprocalLatticeVectors

%block Bandlines
  1    0.5000    0.0000    0.0000    X 
  10   0.0000    0.0000    0.0000    \G 
  10   0.0000    0.5000    0.0000    Y 
  10   0.0000    0.0000    0.0000    \G
  10   0.0000    0.0000    0.5000    Z
%endblock Bandlines

#----------------------------dft i scf-----------------------------

MeshCutoff              250.0 Ry
MaxSCFIterations        200
DM.MixingWeight         0.1
DM.NumberPulay          4
DM.Tolerance            1.d-4
DM.UseSaveDM            T
SolutionMethod          diagon
ElectronicTemperature   5 meV
XC.Functional           GGA
XC.Authors              PBE


#---------------------------escriu informacio----------------------

LongOutput            T
WriteMullikenPop      2
WriteCoorXmol         T 


Lindhard.Temperature	10 K

Lindhard.firstband	159
Lindhard.lastband	162

Lindhard.ngridx		16
Lindhard.ngridy		1000
Lindhard.ngridz		16

Lindhard.nq1		1
Lindhard.nq2		1
